p cnf 965 2478
51 -2 -1 0
-51 2 0
-51 1 0
52 -51 -3 0
-52 51 0
-52 3 0
53 -698 -4 0
-53 698 0
-53 4 0
54 -53 -6 0
-54 53 0
-54 6 0
55 -699 -700 0
-55 699 0
-55 700 0
56 -8 -7 0
-56 8 0
-56 7 0
57 -56 -9 0
-57 56 0
-57 9 0
58 -701 -55 0
-58 701 0
-58 55 0
59 -702 -703 0
-59 702 0
-59 703 0
60 -59 -704 0
-60 59 0
-60 704 0
61 -705 -58 0
-61 705 0
-61 58 0
62 -706 -707 0
-62 706 0
-62 707 0
63 -62 -15 0
-63 62 0
-63 15 0
64 -708 -61 0
-64 708 0
-64 61 0
65 -17 -16 0
-65 17 0
-65 16 0
66 -65 -18 0
-66 65 0
-66 18 0
67 -709 -64 0
-67 709 0
-67 64 0
68 -710 -706 0
-68 710 0
-68 706 0
69 -68 -20 0
-69 68 0
-69 20 0
70 -711 -67 0
-70 711 0
-70 67 0
71 -21 -704 0
-71 21 0
-71 704 0
72 -71 -9 0
-72 71 0
-72 9 0
73 -712 -70 0
-73 712 0
-73 70 0
74 -713 -714 0
-74 713 0
-74 714 0
75 -74 -23 0
-75 74 0
-75 23 0
76 -715 -73 0
-76 715 0
-76 73 0
77 -25 -716 0
-77 25 0
-77 716 0
78 -77 -717 0
-78 77 0
-78 717 0
79 -718 -76 0
-79 718 0
-79 76 0
80 -26 -2 0
-80 26 0
-80 2 0
81 -80 -27 0
-81 80 0
-81 27 0
82 -719 -79 0
-82 719 0
-82 79 0
83 -28 -713 0
-83 28 0
-83 713 0
84 -83 -29 0
-84 83 0
-84 29 0
85 -720 -82 0
-85 720 0
-85 82 0
86 -721 -2 0
-86 721 0
-86 2 0
87 -86 -722 0
-87 86 0
-87 722 0
88 -723 -85 0
-88 723 0
-88 85 0
89 -724 -32 0
-89 724 0
-89 32 0
90 -89 -34 0
-90 89 0
-90 34 0
91 -725 -88 0
-91 725 0
-91 88 0
92 -726 -7 0
-92 726 0
-92 7 0
93 -92 -35 0
-93 92 0
-93 35 0
94 -727 -91 0
-94 727 0
-94 91 0
95 -728 -703 0
-95 728 0
-95 703 0
96 -95 -36 0
-96 95 0
-96 36 0
97 -729 -94 0
-97 729 0
-97 94 0
98 -703 -2 0
-98 703 0
-98 2 0
99 -98 -730 0
-99 98 0
-99 730 0
100 -731 -97 0
-100 731 0
-100 97 0
101 -732 -733 0
-101 732 0
-101 733 0
102 -101 -734 0
-102 101 0
-102 734 0
103 -735 -100 0
-103 735 0
-103 100 0
104 -28 -706 0
-104 28 0
-104 706 0
105 -104 -7 0
-105 104 0
-105 7 0
106 -736 -103 0
-106 736 0
-106 103 0
107 -38 -737 0
-107 38 0
-107 737 0
108 -107 -738 0
-108 107 0
-108 738 0
109 -739 -106 0
-109 739 0
-109 106 0
110 -40 -740 0
-110 40 0
-110 740 0
111 -110 -730 0
-111 110 0
-111 730 0
112 -741 -109 0
-112 741 0
-112 109 0
113 -742 -732 0
-113 742 0
-113 732 0
114 -113 -12 0
-114 113 0
-114 12 0
115 -743 -112 0
-115 743 0
-115 112 0
116 -726 -707 0
-116 726 0
-116 707 0
117 -116 -717 0
-117 116 0
-117 717 0
118 -744 -115 0
-118 744 0
-118 115 0
119 -29 -6 0
-119 29 0
-119 6 0
120 -119 -15 0
-120 119 0
-120 15 0
121 -745 -118 0
-121 745 0
-121 118 0
122 -16 -3 0
-122 16 0
-122 3 0
123 -122 -746 0
-123 122 0
-123 746 0
124 -747 -121 0
-124 747 0
-124 121 0
125 -748 -740 0
-125 748 0
-125 740 0
126 -125 -37 0
-126 125 0
-126 37 0
127 -749 -124 0
-127 749 0
-127 124 0
128 -22 -15 0
-128 22 0
-128 15 0
129 -128 -750 0
-129 128 0
-129 750 0
130 -751 -127 0
-130 751 0
-130 127 0
131 -752 -19 0
-131 752 0
-131 19 0
132 -131 -753 0
-132 131 0
-132 753 0
133 -754 -130 0
-133 754 0
-133 130 0
134 -22 -16 0
-134 22 0
-134 16 0
135 -134 -18 0
-135 134 0
-135 18 0
136 -755 -133 0
-136 755 0
-136 133 0
137 -44 -748 0
-137 44 0
-137 748 0
138 -137 -756 0
-138 137 0
-138 756 0
139 -757 -136 0
-139 757 0
-139 136 0
140 -721 -698 0
-140 721 0
-140 698 0
141 -140 -12 0
-141 140 0
-141 12 0
142 -758 -139 0
-142 758 0
-142 139 0
143 -43 -1 0
-143 43 0
-143 1 0
144 -143 -759 0
-144 143 0
-144 759 0
145 -760 -142 0
-145 760 0
-145 142 0
146 -45 -26 0
-146 45 0
-146 26 0
147 -146 -707 0
-147 146 0
-147 707 0
148 -761 -145 0
-148 761 0
-148 145 0
149 -762 -763 0
-149 762 0
-149 763 0
150 -149 -20 0
-150 149 0
-150 20 0
151 -764 -148 0
-151 764 0
-151 148 0
152 -742 -31 0
-152 742 0
-152 31 0
153 -152 -746 0
-153 152 0
-153 746 0
154 -765 -151 0
-154 765 0
-154 151 0
155 -752 -25 0
-155 752 0
-155 25 0
156 -155 -734 0
-156 155 0
-156 734 0
157 -766 -154 0
-157 766 0
-157 154 0
158 -22 -737 0
-158 22 0
-158 737 0
159 -158 -15 0
-159 158 0
-159 15 0
160 -767 -157 0
-160 767 0
-160 157 0
161 -45 -714 0
-161 45 0
-161 714 0
162 -161 -47 0
-162 161 0
-162 47 0
163 -768 -160 0
-163 768 0
-163 160 0
164 -21 -750 0
-164 21 0
-164 750 0
165 -164 -730 0
-165 164 0
-165 730 0
166 -769 -163 0
-166 769 0
-166 163 0
167 -47 -763 0
-167 47 0
-167 763 0
168 -167 -759 0
-168 167 0
-168 759 0
169 -770 -166 0
-169 770 0
-169 166 0
170 -752 -771 0
-170 752 0
-170 771 0
171 -170 -772 0
-171 170 0
-171 772 0
172 -773 -169 0
-172 773 0
-172 169 0
173 -32 -31 0
-173 32 0
-173 31 0
174 -173 -9 0
-174 173 0
-174 9 0
175 -774 -172 0
-175 774 0
-175 172 0
176 -39 -32 0
-176 39 0
-176 32 0
177 -176 -775 0
-177 176 0
-177 775 0
178 -776 -175 0
-178 776 0
-178 175 0
179 -24 -706 0
-179 24 0
-179 706 0
180 -179 -40 0
-180 179 0
-180 40 0
181 -777 -178 0
-181 777 0
-181 178 0
182 -31 -728 0
-182 31 0
-182 728 0
183 -182 -33 0
-183 182 0
-183 33 0
184 -778 -181 0
-184 778 0
-184 181 0
185 -779 -698 0
-185 779 0
-185 698 0
186 -185 -35 0
-186 185 0
-186 35 0
187 -780 -184 0
-187 780 0
-187 184 0
188 -748 -1 0
-188 748 0
-188 1 0
189 -188 -12 0
-189 188 0
-189 12 0
190 -781 -187 0
-190 781 0
-190 187 0
191 -782 -783 0
-191 782 0
-191 783 0
192 -191 -753 0
-192 191 0
-192 753 0
193 -784 -190 0
-193 784 0
-193 190 0
194 -48 -6 0
-194 48 0
-194 6 0
195 -194 -21 0
-195 194 0
-195 21 0
196 -785 -193 0
-196 785 0
-196 193 0
197 -786 -752 0
-197 786 0
-197 752 0
198 -197 -20 0
-198 197 0
-198 20 0
199 -787 -196 0
-199 787 0
-199 196 0
200 -46 -737 0
-200 46 0
-200 737 0
201 -200 -37 0
-201 200 0
-201 37 0
202 -788 -199 0
-202 788 0
-202 199 0
203 -49 -789 0
-203 49 0
-203 789 0
204 -203 -50 0
-204 203 0
-204 50 0
205 -790 -202 0
-205 790 0
-205 202 0
206 -786 -14 0
-206 786 0
-206 14 0
207 -206 -19 0
-207 206 0
-207 19 0
208 -791 -205 0
-208 791 0
-208 205 0
209 -38 -716 0
-209 38 0
-209 716 0
210 -209 -717 0
-210 209 0
-210 717 0
211 -792 -208 0
-211 792 0
-211 208 0
212 -793 -24 0
-212 793 0
-212 24 0
213 -212 -794 0
-213 212 0
-213 794 0
214 -795 -211 0
-214 795 0
-214 211 0
215 -786 -41 0
-215 786 0
-215 41 0
216 -215 -772 0
-216 215 0
-216 772 0
217 -796 -214 0
-217 796 0
-217 214 0
218 -46 -771 0
-218 46 0
-218 771 0
219 -218 -37 0
-219 218 0
-219 37 0
220 -797 -217 0
-220 797 0
-220 217 0
221 -40 -7 0
-221 40 0
-221 7 0
222 -221 -798 0
-222 221 0
-222 798 0
223 -799 -220 0
-223 799 0
-223 220 0
224 -42 -25 0
-224 42 0
-224 25 0
225 -224 -44 0
-225 224 0
-225 44 0
226 -800 -223 0
-226 800 0
-226 223 0
227 -39 -33 0
-227 39 0
-227 33 0
228 -227 -772 0
-228 227 0
-228 772 0
229 -801 -226 0
-229 801 0
-229 226 0
230 -802 -17 0
-230 802 0
-230 17 0
231 -230 -730 0
-231 230 0
-231 730 0
232 -803 -229 0
-232 803 0
-232 229 0
233 -733 -714 0
-233 733 0
-233 714 0
234 -233 -12 0
-234 233 0
-234 12 0
235 -804 -232 0
-235 804 0
-235 232 0
236 -13 -11 0
-236 13 0
-236 11 0
237 -236 -3 0
-237 236 0
-237 3 0
238 -805 -235 0
-238 805 0
-238 235 0
239 -728 -707 0
-239 728 0
-239 707 0
240 -239 -730 0
-240 239 0
-240 730 0
241 -806 -238 0
-241 806 0
-241 238 0
242 -698 -3 0
-242 698 0
-242 3 0
243 -242 -793 0
-243 242 0
-243 793 0
244 -807 -241 0
-244 807 0
-244 241 0
245 -38 -706 0
-245 38 0
-245 706 0
246 -245 -35 0
-246 245 0
-246 35 0
247 -808 -244 0
-247 808 0
-247 244 0
248 -748 -3 0
-248 748 0
-248 3 0
249 -248 -753 0
-249 248 0
-249 753 0
250 -809 -247 0
-250 809 0
-250 247 0
251 -704 -798 0
-251 704 0
-251 798 0
252 -251 -750 0
-252 251 0
-252 750 0
253 -810 -250 0
-253 810 0
-253 250 0
254 -17 -811 0
-254 17 0
-254 811 0
255 -254 -772 0
-255 254 0
-255 772 0
256 -812 -253 0
-256 812 0
-256 253 0
257 -49 -30 0
-257 49 0
-257 30 0
258 -257 -27 0
-258 257 0
-258 27 0
259 -813 -256 0
-259 813 0
-259 256 0
260 -49 -44 0
-260 49 0
-260 44 0
261 -260 -753 0
-261 260 0
-261 753 0
262 -814 -259 0
-262 814 0
-262 259 0
263 -786 -716 0
-263 786 0
-263 716 0
264 -263 -737 0
-264 263 0
-264 737 0
265 -815 -262 0
-265 815 0
-265 262 0
266 -721 -771 0
-266 721 0
-266 771 0
267 -266 -786 0
-267 266 0
-267 786 0
268 -816 -265 0
-268 816 0
-268 265 0
269 -782 -706 0
-269 782 0
-269 706 0
270 -269 -704 0
-270 269 0
-270 704 0
271 -817 -268 0
-271 817 0
-271 268 0
272 -125 -732 0
-272 125 0
-272 732 0
273 -818 -271 0
-273 818 0
-273 271 0
274 -802 -4 0
-274 802 0
-274 4 0
275 -274 -18 0
-275 274 0
-275 18 0
276 -819 -273 0
-276 819 0
-276 273 0
277 -724 -798 0
-277 724 0
-277 798 0
278 -277 -759 0
-278 277 0
-278 759 0
279 -820 -276 0
-279 820 0
-279 276 0
280 -45 -41 0
-280 45 0
-280 41 0
281 -280 -29 0
-281 280 0
-281 29 0
282 -821 -279 0
-282 821 0
-282 279 0
283 -24 -822 0
-283 24 0
-283 822 0
284 -283 -37 0
-284 283 0
-284 37 0
285 -823 -282 0
-285 823 0
-285 282 0
286 -738 -36 0
-286 738 0
-286 36 0
287 -286 -753 0
-287 286 0
-287 753 0
288 -824 -285 0
-288 824 0
-288 285 0
289 -706 -702 0
-289 706 0
-289 702 0
290 -289 -738 0
-290 289 0
-290 738 0
291 -825 -288 0
-291 825 0
-291 288 0
292 -41 -33 0
-292 41 0
-292 33 0
293 -292 -3 0
-293 292 0
-293 3 0
294 -826 -291 0
-294 826 0
-294 291 0
295 -732 -24 0
-295 732 0
-295 24 0
296 -295 -6 0
-296 295 0
-296 6 0
297 -827 -294 0
-297 827 0
-297 294 0
298 -716 -14 0
-298 716 0
-298 14 0
299 -298 -798 0
-299 298 0
-299 798 0
300 -828 -297 0
-300 828 0
-300 297 0
301 -728 -698 0
-301 728 0
-301 698 0
302 -301 -726 0
-302 301 0
-302 726 0
303 -829 -300 0
-303 829 0
-303 300 0
304 -28 -10 0
-304 28 0
-304 10 0
305 -304 -798 0
-305 304 0
-305 798 0
306 -830 -303 0
-306 830 0
-306 303 0
307 -733 -704 0
-307 733 0
-307 704 0
308 -307 -50 0
-308 307 0
-308 50 0
309 -831 -306 0
-309 831 0
-309 306 0
310 -29 -702 0
-310 29 0
-310 702 0
311 -310 -738 0
-311 310 0
-311 738 0
312 -832 -309 0
-312 832 0
-312 309 0
313 -28 -707 0
-313 28 0
-313 707 0
314 -313 -782 0
-314 313 0
-314 782 0
315 -833 -312 0
-315 833 0
-315 312 0
316 -834 -775 0
-316 834 0
-316 775 0
317 -316 -730 0
-317 316 0
-317 730 0
318 -835 -315 0
-318 835 0
-318 315 0
319 -32 -702 0
-319 32 0
-319 702 0
320 -319 -836 0
-320 319 0
-320 836 0
321 -837 -318 0
-321 837 0
-321 318 0
322 -28 -13 0
-322 28 0
-322 13 0
323 -322 -794 0
-323 322 0
-323 794 0
324 -838 -321 0
-324 838 0
-324 321 0
325 -802 -28 0
-325 802 0
-325 28 0
326 -325 -793 0
-326 325 0
-326 793 0
327 -839 -324 0
-327 839 0
-327 324 0
328 -38 -840 0
-328 38 0
-328 840 0
329 -328 -794 0
-329 328 0
-329 794 0
330 -841 -327 0
-330 841 0
-330 327 0
331 -46 -834 0
-331 46 0
-331 834 0
332 -331 -794 0
-332 331 0
-332 794 0
333 -842 -330 0
-333 842 0
-333 330 0
334 -28 -726 0
-334 28 0
-334 726 0
335 -334 -798 0
-335 334 0
-335 798 0
336 -843 -333 0
-336 843 0
-336 333 0
337 -714 -728 0
-337 714 0
-337 728 0
338 -337 -47 0
-338 337 0
-338 47 0
339 -844 -336 0
-339 844 0
-339 336 0
340 -26 -771 0
-340 26 0
-340 771 0
341 -340 -802 0
-341 340 0
-341 802 0
342 -845 -339 0
-342 845 0
-342 339 0
343 -714 -706 0
-343 714 0
-343 706 0
344 -343 -840 0
-344 343 0
-344 840 0
345 -846 -342 0
-345 846 0
-345 342 0
346 -802 -726 0
-346 802 0
-346 726 0
347 -346 -704 0
-347 346 0
-347 704 0
348 -847 -345 0
-348 847 0
-348 345 0
349 -840 -737 0
-349 840 0
-349 737 0
350 -349 -782 0
-350 349 0
-350 782 0
351 -848 -348 0
-351 848 0
-351 348 0
352 -36 -16 0
-352 36 0
-352 16 0
353 -352 -21 0
-353 352 0
-353 21 0
354 -849 -351 0
-354 849 0
-354 351 0
355 -30 -822 0
-355 30 0
-355 822 0
356 -355 -2 0
-356 355 0
-356 2 0
357 -850 -354 0
-357 850 0
-357 354 0
358 -35 -834 0
-358 35 0
-358 834 0
359 -358 -750 0
-359 358 0
-359 750 0
360 -851 -357 0
-360 851 0
-360 357 0
361 -786 -30 0
-361 786 0
-361 30 0
362 -361 -750 0
-362 361 0
-362 750 0
363 -852 -360 0
-363 852 0
-363 360 0
364 -32 -713 0
-364 32 0
-364 713 0
365 -364 -775 0
-365 364 0
-365 775 0
366 -853 -363 0
-366 853 0
-366 363 0
367 -16 -822 0
-367 16 0
-367 822 0
368 -367 -20 0
-368 367 0
-368 20 0
369 -854 -366 0
-369 854 0
-369 366 0
370 -721 -28 0
-370 721 0
-370 28 0
371 -370 -753 0
-371 370 0
-371 753 0
372 -855 -369 0
-372 855 0
-372 369 0
373 -802 -32 0
-373 802 0
-373 32 0
374 -373 -9 0
-374 373 0
-374 9 0
375 -856 -372 0
-375 856 0
-375 372 0
376 -41 -13 0
-376 41 0
-376 13 0
377 -376 -798 0
-377 376 0
-377 798 0
378 -857 -375 0
-378 857 0
-378 375 0
379 -703 -5 0
-379 703 0
-379 5 0
380 -379 -746 0
-380 379 0
-380 746 0
381 -858 -378 0
-381 858 0
-381 378 0
382 -29 -710 0
-382 29 0
-382 710 0
383 -382 -746 0
-383 382 0
-383 746 0
384 -859 -381 0
-384 859 0
-384 381 0
385 -779 -732 0
-385 779 0
-385 732 0
386 -385 -40 0
-386 385 0
-386 40 0
387 -860 -384 0
-387 860 0
-387 384 0
388 -29 -4 0
-388 29 0
-388 4 0
389 -388 -18 0
-389 388 0
-389 18 0
390 -861 -387 0
-390 861 0
-390 387 0
391 -17 -707 0
-391 17 0
-391 707 0
392 -391 -8 0
-392 391 0
-392 8 0
393 -862 -390 0
-393 862 0
-393 390 0
394 -779 -834 0
-394 779 0
-394 834 0
395 -394 -763 0
-395 394 0
-395 763 0
396 -863 -393 0
-396 863 0
-396 393 0
397 -49 -724 0
-397 49 0
-397 724 0
398 -397 -23 0
-398 397 0
-398 23 0
399 -864 -396 0
-399 864 0
-399 396 0
400 -5 -771 0
-400 5 0
-400 771 0
401 -400 -37 0
-401 400 0
-401 37 0
402 -865 -399 0
-402 865 0
-402 399 0
403 -762 -26 0
-403 762 0
-403 26 0
404 -403 -732 0
-404 403 0
-404 732 0
405 -866 -402 0
-405 866 0
-405 402 0
406 -26 -11 0
-406 26 0
-406 11 0
407 -406 -840 0
-407 406 0
-407 840 0
408 -867 -405 0
-408 867 0
-408 405 0
409 -49 -41 0
-409 49 0
-409 41 0
410 -409 -759 0
-410 409 0
-410 759 0
411 -868 -408 0
-411 868 0
-411 408 0
412 -836 -771 0
-412 836 0
-412 771 0
413 -412 -36 0
-413 412 0
-413 36 0
414 -869 -411 0
-414 869 0
-414 411 0
415 -721 -4 0
-415 721 0
-415 4 0
416 -415 -6 0
-416 415 0
-416 6 0
417 -870 -414 0
-417 870 0
-417 414 0
418 -49 -12 0
-418 49 0
-418 12 0
419 -418 -27 0
-419 418 0
-419 27 0
420 -871 -417 0
-420 871 0
-420 417 0
421 -30 -7 0
-421 30 0
-421 7 0
422 -421 -47 0
-422 421 0
-422 47 0
423 -872 -420 0
-423 872 0
-423 420 0
424 -834 -811 0
-424 834 0
-424 811 0
425 -424 -27 0
-425 424 0
-425 27 0
426 -873 -423 0
-426 873 0
-426 423 0
427 -752 -31 0
-427 752 0
-427 31 0
428 -427 -33 0
-428 427 0
-428 33 0
429 -874 -426 0
-429 874 0
-429 426 0
430 -38 -714 0
-430 38 0
-430 714 0
431 -430 -8 0
-431 430 0
-431 8 0
432 -875 -429 0
-432 875 0
-432 429 0
433 -50 -49 0
-433 50 0
-433 49 0
434 -433 -43 0
-434 433 0
-434 43 0
435 -876 -432 0
-435 876 0
-435 432 0
436 -742 -1 0
-436 742 0
-436 1 0
437 -436 -31 0
-437 436 0
-437 31 0
438 -877 -435 0
-438 877 0
-438 435 0
439 -802 -771 0
-439 802 0
-439 771 0
440 -439 -31 0
-440 439 0
-440 31 0
441 -878 -438 0
-441 878 0
-441 438 0
442 -9 -737 0
-442 9 0
-442 737 0
443 -442 -730 0
-443 442 0
-443 730 0
444 -879 -441 0
-444 879 0
-444 441 0
445 -740 -14 0
-445 740 0
-445 14 0
446 -445 -23 0
-446 445 0
-446 23 0
447 -880 -444 0
-447 880 0
-447 444 0
448 -98 -11 0
-448 98 0
-448 11 0
449 -881 -447 0
-449 881 0
-449 447 0
450 -733 -2 0
-450 733 0
-450 2 0
451 -450 -36 0
-451 450 0
-451 36 0
452 -882 -449 0
-452 882 0
-452 449 0
453 -49 -4 0
-453 49 0
-453 4 0
454 -453 -794 0
-454 453 0
-454 794 0
455 -883 -452 0
-455 883 0
-455 452 0
456 -412 -759 0
-456 412 0
-456 759 0
457 -884 -455 0
-457 884 0
-457 455 0
458 -38 -14 0
-458 38 0
-458 14 0
459 -458 -20 0
-459 458 0
-459 20 0
460 -885 -457 0
-460 885 0
-460 457 0
461 -24 -771 0
-461 24 0
-461 771 0
462 -461 -28 0
-462 461 0
-462 28 0
463 -886 -460 0
-463 886 0
-463 460 0
464 -46 -19 0
-464 46 0
-464 19 0
465 -464 -730 0
-465 464 0
-465 730 0
466 -887 -463 0
-466 887 0
-466 463 0
467 -42 -732 0
-467 42 0
-467 732 0
468 -467 -50 0
-468 467 0
-468 50 0
469 -888 -466 0
-469 888 0
-469 466 0
470 -721 -726 0
-470 721 0
-470 726 0
471 -470 -15 0
-471 470 0
-471 15 0
472 -889 -469 0
-472 889 0
-472 469 0
473 -13 -771 0
-473 13 0
-473 771 0
474 -473 -47 0
-474 473 0
-474 47 0
475 -890 -472 0
-475 890 0
-475 472 0
476 -798 -822 0
-476 798 0
-476 822 0
477 -476 -750 0
-477 476 0
-477 750 0
478 -891 -475 0
-478 891 0
-478 475 0
479 -46 -1 0
-479 46 0
-479 1 0
480 -479 -794 0
-480 479 0
-480 794 0
481 -892 -478 0
-481 892 0
-481 478 0
482 -26 -704 0
-482 26 0
-482 704 0
483 -482 -738 0
-483 482 0
-483 738 0
484 -893 -481 0
-484 893 0
-484 481 0
485 -35 -22 0
-485 35 0
-485 22 0
486 -485 -48 0
-486 485 0
-486 48 0
487 -894 -484 0
-487 894 0
-487 484 0
488 -707 -11 0
-488 707 0
-488 11 0
489 -488 -775 0
-489 488 0
-489 775 0
490 -895 -487 0
-490 895 0
-490 487 0
491 -762 -30 0
-491 762 0
-491 30 0
492 -491 -802 0
-492 491 0
-492 802 0
493 -896 -490 0
-493 896 0
-493 490 0
494 -742 -38 0
-494 742 0
-494 38 0
495 -494 -3 0
-495 494 0
-495 3 0
496 -897 -493 0
-496 897 0
-496 493 0
497 -42 -22 0
-497 42 0
-497 22 0
498 -497 -35 0
-498 497 0
-498 35 0
499 -898 -496 0
-499 898 0
-499 496 0
500 -22 -710 0
-500 22 0
-500 710 0
501 -500 -775 0
-501 500 0
-501 775 0
502 -899 -499 0
-502 899 0
-502 499 0
503 -41 -721 0
-503 41 0
-503 721 0
504 -503 -19 0
-504 503 0
-504 19 0
505 -900 -502 0
-505 900 0
-505 502 0
506 -38 -5 0
-506 38 0
-506 5 0
507 -506 -2 0
-507 506 0
-507 2 0
508 -901 -505 0
-508 901 0
-508 505 0
509 -46 -25 0
-509 46 0
-509 25 0
510 -509 -753 0
-510 509 0
-510 753 0
511 -902 -508 0
-511 902 0
-511 508 0
512 -42 -30 0
-512 42 0
-512 30 0
513 -512 -20 0
-513 512 0
-513 20 0
514 -903 -511 0
-514 903 0
-514 511 0
515 -14 -1 0
-515 14 0
-515 1 0
516 -515 -756 0
-516 515 0
-516 756 0
517 -904 -514 0
-517 904 0
-517 514 0
518 -779 -24 0
-518 779 0
-518 24 0
519 -518 -20 0
-519 518 0
-519 20 0
520 -905 -517 0
-520 905 0
-520 517 0
521 -748 -798 0
-521 748 0
-521 798 0
522 -521 -27 0
-522 521 0
-522 27 0
523 -906 -520 0
-523 906 0
-523 520 0
524 -22 -1 0
-524 22 0
-524 1 0
525 -524 -48 0
-525 524 0
-525 48 0
526 -907 -523 0
-526 907 0
-526 523 0
527 -29 -771 0
-527 29 0
-527 771 0
528 -527 -21 0
-528 527 0
-528 21 0
529 -908 -526 0
-529 908 0
-529 526 0
530 -706 -4 0
-530 706 0
-530 4 0
531 -530 -714 0
-531 530 0
-531 714 0
532 -909 -529 0
-532 909 0
-532 529 0
533 -702 -1 0
-533 702 0
-533 1 0
534 -533 -33 0
-534 533 0
-534 33 0
535 -910 -532 0
-535 910 0
-535 532 0
536 -716 -782 0
-536 716 0
-536 782 0
537 -536 -23 0
-537 536 0
-537 23 0
538 -911 -535 0
-538 911 0
-538 535 0
539 -789 -17 0
-539 789 0
-539 17 0
540 -539 -775 0
-540 539 0
-540 775 0
541 -912 -538 0
-541 912 0
-541 538 0
542 -789 -726 0
-542 789 0
-542 726 0
543 -542 -746 0
-543 542 0
-543 746 0
544 -913 -541 0
-544 913 0
-544 541 0
545 -834 -19 0
-545 834 0
-545 19 0
546 -545 -789 0
-546 545 0
-546 789 0
547 -914 -544 0
-547 914 0
-547 544 0
548 -40 -707 0
-548 40 0
-548 707 0
549 -548 -20 0
-549 548 0
-549 20 0
550 -915 -547 0
-550 915 0
-550 547 0
551 -722 -6 0
-551 722 0
-551 6 0
552 -551 -746 0
-552 551 0
-552 746 0
553 -916 -550 0
-553 916 0
-553 550 0
554 -732 -5 0
-554 732 0
-554 5 0
555 -554 -775 0
-555 554 0
-555 775 0
556 -917 -553 0
-556 917 0
-556 553 0
557 -39 -771 0
-557 39 0
-557 771 0
558 -557 -794 0
-558 557 0
-558 794 0
559 -918 -556 0
-559 918 0
-559 556 0
560 -461 -9 0
-560 461 0
-560 9 0
561 -919 -559 0
-561 919 0
-561 559 0
562 -45 -35 0
-562 45 0
-562 35 0
563 -562 -710 0
-563 562 0
-563 710 0
564 -920 -561 0
-564 920 0
-564 561 0
565 -503 -18 0
-565 503 0
-565 18 0
566 -921 -564 0
-566 921 0
-566 564 0
567 -793 -822 0
-567 793 0
-567 822 0
568 -567 -750 0
-568 567 0
-568 750 0
569 -922 -566 0
-569 922 0
-569 566 0
570 -706 -771 0
-570 706 0
-570 771 0
571 -570 -11 0
-571 570 0
-571 11 0
572 -923 -569 0
-572 923 0
-572 569 0
573 -41 -35 0
-573 41 0
-573 35 0
574 -573 -43 0
-574 573 0
-574 43 0
575 -924 -572 0
-575 924 0
-575 572 0
576 -45 -40 0
-576 45 0
-576 40 0
577 -576 -703 0
-577 576 0
-577 703 0
578 -925 -575 0
-578 925 0
-578 575 0
579 -32 -707 0
-579 32 0
-579 707 0
580 -579 -733 0
-580 579 0
-580 733 0
581 -926 -578 0
-581 926 0
-581 578 0
582 -721 -811 0
-582 721 0
-582 811 0
583 -582 -738 0
-583 582 0
-583 738 0
584 -927 -581 0
-584 927 0
-584 581 0
585 -41 -25 0
-585 41 0
-585 25 0
586 -585 -34 0
-586 585 0
-586 34 0
587 -928 -584 0
-587 928 0
-587 584 0
588 -732 -4 0
-588 732 0
-588 4 0
589 -588 -783 0
-589 588 0
-589 783 0
590 -929 -587 0
-590 929 0
-590 587 0
591 -26 -811 0
-591 26 0
-591 811 0
592 -591 -738 0
-592 591 0
-592 738 0
593 -930 -590 0
-593 930 0
-593 590 0
594 -42 -6 0
-594 42 0
-594 6 0
595 -594 -20 0
-595 594 0
-595 20 0
596 -931 -593 0
-596 931 0
-596 593 0
597 -734 -36 0
-597 734 0
-597 36 0
598 -597 -794 0
-598 597 0
-598 794 0
599 -932 -596 0
-599 932 0
-599 596 0
600 -38 -32 0
-600 38 0
-600 32 0
601 -600 -793 0
-601 600 0
-601 793 0
602 -933 -599 0
-602 933 0
-602 599 0
603 -46 -14 0
-603 46 0
-603 14 0
604 -603 -20 0
-604 603 0
-604 20 0
605 -934 -602 0
-605 934 0
-605 602 0
606 -49 -737 0
-606 49 0
-606 737 0
607 -606 -9 0
-607 606 0
-607 9 0
608 -935 -605 0
-608 935 0
-608 605 0
609 -27 -1 0
-609 27 0
-609 1 0
610 -609 -772 0
-610 609 0
-610 772 0
611 -936 -608 0
-611 936 0
-611 608 0
612 -40 -704 0
-612 40 0
-612 704 0
613 -612 -798 0
-613 612 0
-613 798 0
614 -937 -611 0
-614 937 0
-614 611 0
615 -24 -16 0
-615 24 0
-615 16 0
616 -615 -6 0
-616 615 0
-616 6 0
617 -938 -614 0
-617 938 0
-617 614 0
618 -714 -4 0
-618 714 0
-618 4 0
619 -618 -722 0
-619 618 0
-619 722 0
620 -939 -617 0
-620 939 0
-620 617 0
621 -50 -7 0
-621 50 0
-621 7 0
622 -621 -746 0
-622 621 0
-622 746 0
623 -940 -620 0
-623 940 0
-623 620 0
624 -49 -728 0
-624 49 0
-624 728 0
625 -624 -15 0
-625 624 0
-625 15 0
626 -941 -623 0
-626 941 0
-626 623 0
627 -26 -22 0
-627 26 0
-627 22 0
628 -627 -14 0
-628 627 0
-628 14 0
629 -942 -626 0
-629 942 0
-629 626 0
630 -8 -798 0
-630 8 0
-630 798 0
631 -630 -750 0
-631 630 0
-631 750 0
632 -943 -629 0
-632 943 0
-632 629 0
633 -9 -798 0
-633 9 0
-633 798 0
634 -633 -18 0
-634 633 0
-634 18 0
635 -944 -632 0
-635 944 0
-635 632 0
636 -756 -703 0
-636 756 0
-636 703 0
637 -636 -782 0
-637 636 0
-637 782 0
638 -945 -635 0
-638 945 0
-638 635 0
639 -16 -8 0
-639 16 0
-639 8 0
640 -639 -21 0
-640 639 0
-640 21 0
641 -946 -638 0
-641 946 0
-641 638 0
642 -164 -47 0
-642 164 0
-642 47 0
643 -947 -641 0
-643 947 0
-643 641 0
644 -28 -2 0
-644 28 0
-644 2 0
645 -644 -732 0
-645 644 0
-645 732 0
646 -948 -643 0
-646 948 0
-646 643 0
647 -42 -740 0
-647 42 0
-647 740 0
648 -647 -782 0
-648 647 0
-648 782 0
649 -949 -646 0
-649 949 0
-649 646 0
650 -28 -26 0
-650 28 0
-650 26 0
651 -650 -738 0
-651 650 0
-651 738 0
652 -950 -649 0
-652 950 0
-652 649 0
653 -16 -775 0
-653 16 0
-653 775 0
654 -653 -50 0
-654 653 0
-654 50 0
655 -951 -652 0
-655 951 0
-655 652 0
656 -46 -783 0
-656 46 0
-656 783 0
657 -656 -763 0
-657 656 0
-657 763 0
658 -952 -655 0
-658 952 0
-658 655 0
659 -28 -1 0
-659 28 0
-659 1 0
660 -659 -25 0
-660 659 0
-660 25 0
661 -953 -658 0
-661 953 0
-661 658 0
662 -742 -17 0
-662 742 0
-662 17 0
663 -662 -23 0
-663 662 0
-663 23 0
664 -954 -661 0
-664 954 0
-664 661 0
665 -786 -6 0
-665 786 0
-665 6 0
666 -665 -798 0
-666 665 0
-666 798 0
667 -955 -664 0
-667 955 0
-667 664 0
668 -732 -707 0
-668 732 0
-668 707 0
669 -668 -763 0
-669 668 0
-669 763 0
670 -956 -667 0
-670 956 0
-670 667 0
671 -25 -782 0
-671 25 0
-671 782 0
672 -671 -759 0
-672 671 0
-672 759 0
673 -957 -670 0
-673 957 0
-673 670 0
674 -15 -14 0
-674 15 0
-674 14 0
675 -674 -33 0
-675 674 0
-675 33 0
676 -958 -673 0
-676 958 0
-676 673 0
677 -748 -834 0
-677 748 0
-677 834 0
678 -677 -43 0
-678 677 0
-678 43 0
679 -959 -676 0
-679 959 0
-679 676 0
680 -724 -18 0
-680 724 0
-680 18 0
681 -680 -23 0
-681 680 0
-681 23 0
682 -960 -679 0
-682 960 0
-682 679 0
683 -752 -30 0
-683 752 0
-683 30 0
684 -683 -762 0
-684 683 0
-684 762 0
685 -961 -682 0
-685 961 0
-685 682 0
686 -713 -771 0
-686 713 0
-686 771 0
687 -686 -47 0
-687 686 0
-687 47 0
688 -962 -685 0
-688 962 0
-688 685 0
689 -30 -16 0
-689 30 0
-689 16 0
690 -689 -9 0
-690 689 0
-690 9 0
691 -963 -688 0
-691 963 0
-691 688 0
692 -703 -698 0
-692 703 0
-692 698 0
693 -692 -753 0
-693 692 0
-693 753 0
694 -964 -691 0
-694 964 0
-694 691 0
695 -802 -16 0
-695 802 0
-695 16 0
696 -695 -43 0
-696 695 0
-696 43 0
697 -965 -694 0
-697 965 0
-697 694 0
-698 -5 0
698 5 0
-699 -54 0
699 54 0
-700 -52 0
700 52 0
-701 -57 0
701 57 0
-702 -11 0
702 11 0
-703 -10 0
703 10 0
-704 -12 0
704 12 0
-705 -60 0
705 60 0
-706 -14 0
706 14 0
-707 -13 0
707 13 0
-708 -63 0
708 63 0
-709 -66 0
709 66 0
-710 -19 0
710 19 0
-711 -69 0
711 69 0
-712 -72 0
712 72 0
-713 -22 0
713 22 0
-714 -17 0
714 17 0
-715 -75 0
715 75 0
-716 -24 0
716 24 0
-717 -21 0
717 21 0
-718 -78 0
718 78 0
-719 -81 0
719 81 0
-720 -84 0
720 84 0
-721 -30 0
721 30 0
-722 -31 0
722 31 0
-723 -87 0
723 87 0
-724 -33 0
724 33 0
-725 -90 0
725 90 0
-726 -26 0
726 26 0
-727 -93 0
727 93 0
-728 -16 0
728 16 0
-729 -96 0
729 96 0
-730 -34 0
730 34 0
-731 -99 0
731 99 0
-732 -35 0
732 35 0
-733 -25 0
733 25 0
-734 -37 0
734 37 0
-735 -102 0
735 102 0
-736 -105 0
736 105 0
-737 -2 0
737 2 0
-738 -39 0
738 39 0
-739 -108 0
739 108 0
-740 -38 0
740 38 0
-741 -111 0
741 111 0
-742 -41 0
742 41 0
-743 -114 0
743 114 0
-744 -117 0
744 117 0
-745 -120 0
745 120 0
-746 -27 0
746 27 0
-747 -123 0
747 123 0
-748 -42 0
748 42 0
-749 -126 0
749 126 0
-750 -18 0
750 18 0
-751 -129 0
751 129 0
-752 -32 0
752 32 0
-753 -43 0
753 43 0
-754 -132 0
754 132 0
-755 -135 0
755 135 0
-756 -36 0
756 36 0
-757 -138 0
757 138 0
-758 -141 0
758 141 0
-759 -20 0
759 20 0
-760 -144 0
760 144 0
-761 -147 0
761 147 0
-762 -46 0
762 46 0
-763 -29 0
763 29 0
-764 -150 0
764 150 0
-765 -153 0
765 153 0
-766 -156 0
766 156 0
-767 -159 0
767 159 0
-768 -162 0
768 162 0
-769 -165 0
769 165 0
-770 -168 0
770 168 0
-771 -4 0
771 4 0
-772 -47 0
772 47 0
-773 -171 0
773 171 0
-774 -174 0
774 174 0
-775 -9 0
775 9 0
-776 -177 0
776 177 0
-777 -180 0
777 180 0
-778 -183 0
778 183 0
-779 -45 0
779 45 0
-780 -186 0
780 186 0
-781 -189 0
781 189 0
-782 -15 0
782 15 0
-783 -8 0
783 8 0
-784 -192 0
784 192 0
-785 -195 0
785 195 0
-786 -49 0
786 49 0
-787 -198 0
787 198 0
-788 -201 0
788 201 0
-789 -48 0
789 48 0
-790 -204 0
790 204 0
-791 -207 0
791 207 0
-792 -210 0
792 210 0
-793 -50 0
793 50 0
-794 -23 0
794 23 0
-795 -213 0
795 213 0
-796 -216 0
796 216 0
-797 -219 0
797 219 0
-798 -3 0
798 3 0
-799 -222 0
799 222 0
-800 -225 0
800 225 0
-801 -228 0
801 228 0
-802 -40 0
802 40 0
-803 -231 0
803 231 0
-804 -234 0
804 234 0
-805 -237 0
805 237 0
-806 -240 0
806 240 0
-807 -243 0
807 243 0
-808 -246 0
808 246 0
-809 -249 0
809 249 0
-810 -252 0
810 252 0
-811 -7 0
811 7 0
-812 -255 0
812 255 0
-813 -258 0
813 258 0
-814 -261 0
814 261 0
-815 -264 0
815 264 0
-816 -267 0
816 267 0
-817 -270 0
817 270 0
-818 -272 0
818 272 0
-819 -275 0
819 275 0
-820 -278 0
820 278 0
-821 -281 0
821 281 0
-822 -1 0
822 1 0
-823 -284 0
823 284 0
-824 -287 0
824 287 0
-825 -290 0
825 290 0
-826 -293 0
826 293 0
-827 -296 0
827 296 0
-828 -299 0
828 299 0
-829 -302 0
829 302 0
-830 -305 0
830 305 0
-831 -308 0
831 308 0
-832 -311 0
832 311 0
-833 -314 0
833 314 0
-834 -28 0
834 28 0
-835 -317 0
835 317 0
-836 -44 0
836 44 0
-837 -320 0
837 320 0
-838 -323 0
838 323 0
-839 -326 0
839 326 0
-840 -6 0
840 6 0
-841 -329 0
841 329 0
-842 -332 0
842 332 0
-843 -335 0
843 335 0
-844 -338 0
844 338 0
-845 -341 0
845 341 0
-846 -344 0
846 344 0
-847 -347 0
847 347 0
-848 -350 0
848 350 0
-849 -353 0
849 353 0
-850 -356 0
850 356 0
-851 -359 0
851 359 0
-852 -362 0
852 362 0
-853 -365 0
853 365 0
-854 -368 0
854 368 0
-855 -371 0
855 371 0
-856 -374 0
856 374 0
-857 -377 0
857 377 0
-858 -380 0
858 380 0
-859 -383 0
859 383 0
-860 -386 0
860 386 0
-861 -389 0
861 389 0
-862 -392 0
862 392 0
-863 -395 0
863 395 0
-864 -398 0
864 398 0
-865 -401 0
865 401 0
-866 -404 0
866 404 0
-867 -407 0
867 407 0
-868 -410 0
868 410 0
-869 -413 0
869 413 0
-870 -416 0
870 416 0
-871 -419 0
871 419 0
-872 -422 0
872 422 0
-873 -425 0
873 425 0
-874 -428 0
874 428 0
-875 -431 0
875 431 0
-876 -434 0
876 434 0
-877 -437 0
877 437 0
-878 -440 0
878 440 0
-879 -443 0
879 443 0
-880 -446 0
880 446 0
-881 -448 0
881 448 0
-882 -451 0
882 451 0
-883 -454 0
883 454 0
-884 -456 0
884 456 0
-885 -459 0
885 459 0
-886 -462 0
886 462 0
-887 -465 0
887 465 0
-888 -468 0
888 468 0
-889 -471 0
889 471 0
-890 -474 0
890 474 0
-891 -477 0
891 477 0
-892 -480 0
892 480 0
-893 -483 0
893 483 0
-894 -486 0
894 486 0
-895 -489 0
895 489 0
-896 -492 0
896 492 0
-897 -495 0
897 495 0
-898 -498 0
898 498 0
-899 -501 0
899 501 0
-900 -504 0
900 504 0
-901 -507 0
901 507 0
-902 -510 0
902 510 0
-903 -513 0
903 513 0
-904 -516 0
904 516 0
-905 -519 0
905 519 0
-906 -522 0
906 522 0
-907 -525 0
907 525 0
-908 -528 0
908 528 0
-909 -531 0
909 531 0
-910 -534 0
910 534 0
-911 -537 0
911 537 0
-912 -540 0
912 540 0
-913 -543 0
913 543 0
-914 -546 0
914 546 0
-915 -549 0
915 549 0
-916 -552 0
916 552 0
-917 -555 0
917 555 0
-918 -558 0
918 558 0
-919 -560 0
919 560 0
-920 -563 0
920 563 0
-921 -565 0
921 565 0
-922 -568 0
922 568 0
-923 -571 0
923 571 0
-924 -574 0
924 574 0
-925 -577 0
925 577 0
-926 -580 0
926 580 0
-927 -583 0
927 583 0
-928 -586 0
928 586 0
-929 -589 0
929 589 0
-930 -592 0
930 592 0
-931 -595 0
931 595 0
-932 -598 0
932 598 0
-933 -601 0
933 601 0
-934 -604 0
934 604 0
-935 -607 0
935 607 0
-936 -610 0
936 610 0
-937 -613 0
937 613 0
-938 -616 0
938 616 0
-939 -619 0
939 619 0
-940 -622 0
940 622 0
-941 -625 0
941 625 0
-942 -628 0
942 628 0
-943 -631 0
943 631 0
-944 -634 0
944 634 0
-945 -637 0
945 637 0
-946 -640 0
946 640 0
-947 -642 0
947 642 0
-948 -645 0
948 645 0
-949 -648 0
949 648 0
-950 -651 0
950 651 0
-951 -654 0
951 654 0
-952 -657 0
952 657 0
-953 -660 0
953 660 0
-954 -663 0
954 663 0
-955 -666 0
955 666 0
-956 -669 0
956 669 0
-957 -672 0
957 672 0
-958 -675 0
958 675 0
-959 -678 0
959 678 0
-960 -681 0
960 681 0
-961 -684 0
961 684 0
-962 -687 0
962 687 0
-963 -690 0
963 690 0
-964 -693 0
964 693 0
-965 -696 0
965 696 0
697 0
